c Generated map
c Size: 8 * 8, weights in range: 1 to 10, walls: True, with ratio 0.05
c dim 6 of 9
c
p sp 64 102
c graph contains 64 nodes and 102 arcs
c
a 1 2 8
a 2 1 8
a 2 10 9
a 10 2 9
a 2 3 7
a 3 2 7
a 3 11 5
a 11 3 5
a 5 13 10
a 13 5 10
a 5 6 7
a 6 5 7
a 6 7 1
a 7 6 1
a 7 15 6
a 15 7 6
a 7 8 10
a 8 7 10
a 8 16 2
a 16 8 2
a 10 18 5
a 18 10 5
a 10 11 1
a 11 10 1
a 11 19 4
a 19 11 4
a 11 12 2
a 12 11 2
a 12 20 1
a 20 12 1
a 12 13 1
a 13 12 1
a 13 21 7
a 21 13 7
a 15 23 10
a 23 15 10
a 15 16 5
a 16 15 5
a 16 24 3
a 24 16 3
a 17 25 4
a 25 17 4
a 17 18 1
a 18 17 1
a 18 26 8
a 26 18 8
a 18 19 2
a 19 18 2
a 19 27 8
a 27 19 8
a 19 20 7
a 20 19 7
a 20 28 4
a 28 20 4
a 20 21 1
a 21 20 1
a 21 29 1
a 29 21 1
a 21 22 8
a 22 21 8
a 22 30 10
a 30 22 10
a 22 23 2
a 23 22 2
a 23 31 5
a 31 23 5
a 23 24 10
a 24 23 10
a 24 32 9
a 32 24 9
a 25 33 3
a 33 25 3
a 25 26 2
a 26 25 2
a 26 34 3
a 34 26 3
a 26 27 1
a 27 26 1
a 27 35 10
a 35 27 10
a 27 28 5
a 28 27 5
a 28 36 4
a 36 28 4
a 28 29 1
a 29 28 1
a 29 37 1
a 37 29 1
a 29 30 4
a 30 29 4
a 30 38 4
a 38 30 4
a 30 31 6
a 31 30 6
a 31 39 1
a 39 31 1
a 31 32 5
a 32 31 5
a 32 40 6
a 40 32 6
a 33 41 2
a 41 33 2
a 33 34 9
a 34 33 9
a 34 42 6
a 42 34 6
a 34 35 7
a 35 34 7
a 35 43 6
a 43 35 6
a 35 36 7
a 36 35 7
a 36 44 9
a 44 36 9
a 36 37 8
a 37 36 8
a 37 45 1
a 45 37 1
a 37 38 8
a 38 37 8
a 38 46 7
a 46 38 7
a 38 39 6
a 39 38 6
a 39 47 7
a 47 39 7
a 39 40 8
a 40 39 8
a 40 48 1
a 48 40 1
a 41 49 9
a 49 41 9
a 41 42 9
a 42 41 9
a 42 50 6
a 50 42 6
a 42 43 6
a 43 42 6
a 43 51 1
a 51 43 1
a 43 44 6
a 44 43 6
a 44 52 4
a 52 44 4
a 44 45 3
a 45 44 3
a 45 53 1
a 53 45 1
a 45 46 1
a 46 45 1
a 46 54 4
a 54 46 4
a 46 47 5
a 47 46 5
a 47 55 4
a 55 47 4
a 47 48 1
a 48 47 1
a 48 56 8
a 56 48 8
a 49 57 4
a 57 49 4
a 49 50 4
a 50 49 4
a 50 58 9
a 58 50 9
a 50 51 3
a 51 50 3
a 51 59 2
a 59 51 2
a 51 52 7
a 52 51 7
a 52 60 5
a 60 52 5
a 52 53 9
a 53 52 9
a 53 61 1
a 61 53 1
a 53 54 1
a 54 53 1
a 54 62 3
a 62 54 3
a 54 55 3
a 55 54 3
a 55 63 6
a 63 55 6
a 55 56 3
a 56 55 3
a 56 64 6
a 64 56 6
a 57 58 10
a 58 57 10
a 58 59 2
a 59 58 2
a 59 60 5
a 60 59 5
a 60 61 7
a 61 60 7
a 61 62 3
a 62 61 3
a 62 63 10
a 63 62 10
a 63 64 9
a 64 63 9
